language ESSENCE' 1.0
$ generated by prob2compact.py 9x5-ps1-b22.prob
$ #########
$ #       #
$ #BPB  PB#
$ ##### ###
$ #########
$ B:3 P:2 blocks:5 spaces:10
letting initGrid be [
[0,0,0,0,0,0,0,0,0],
[0,0,0,0,0,1,0,0,0],
[0,1,1,1,1,1,1,1,0],
[0,1,1,1,1,1,1,1,0],
[0,0,0,0,0,0,0,0,0]]
letting initPatternedBlocks be [
[3,2],
[3,4],
[3,8],
[3,3],
[3,7]]
letting patternBands be [
[1,3],
[4,5]]
$ letting noSteps be 100
